c description: Random 3-CNF over 20 variables and 85 clauses
c generator: CNFgen (0.9.2)
c copyright: (C) 2012-2022 Massimo Lauria <massimo.lauria@uniroma1.it>
c url: https://massimolauria.net/cnfgen
c command line: cnfgen --output CNF_4.28/20_bit_85_149.cnf randkcnf 3 20 85
c
p cnf 20 85
-3 -9 -20 0
-11 -15 -18 0
11 12 20 0
-3 -12 14 0
1 9 -13 0
3 -5 16 0
-5 -13 20 0
3 11 13 0
3 6 -16 0
-5 12 -17 0
-2 11 16 0
5 7 20 0
17 -18 20 0
-1 11 12 0
5 12 -15 0
9 10 14 0
10 17 19 0
8 11 -14 0
-1 5 8 0
9 -16 -18 0
-1 6 -19 0
-2 -3 14 0
-2 -12 -15 0
-3 11 -17 0
1 3 -8 0
4 -9 17 0
3 7 -12 0
8 11 14 0
2 15 -19 0
-2 -13 19 0
1 -4 -14 0
3 13 -16 0
-9 -16 19 0
-5 11 -13 0
-1 -6 -8 0
1 8 15 0
7 10 11 0
2 -10 20 0
1 16 -20 0
-2 -7 -19 0
-9 -13 -17 0
1 -14 -20 0
2 4 -17 0
-12 -17 19 0
-3 5 13 0
3 -7 18 0
1 5 -18 0
2 -8 12 0
5 -10 -17 0
5 -8 -12 0
-3 -6 17 0
-3 5 11 0
-12 -15 20 0
1 -6 20 0
-5 6 -18 0
-5 9 13 0
3 5 7 0
-3 5 -8 0
1 -6 9 0
-1 -7 15 0
3 8 13 0
8 9 -20 0
-4 10 -19 0
-1 -4 -11 0
2 9 11 0
-5 15 18 0
7 -8 -19 0
6 13 16 0
3 -15 18 0
3 6 -11 0
-2 -4 11 0
3 9 -10 0
2 -11 -15 0
5 6 -12 0
7 -9 -16 0
-2 -11 17 0
11 14 15 0
-14 15 -20 0
3 11 -17 0
1 -12 -19 0
9 -18 -20 0
-11 13 -17 0
4 -8 16 0
-1 5 -16 0
-3 -11 14 0
